150 7311
1 87 76 73 48 63 10 113 3 62 149 125 22 104 4 115 150 21 88 94 121 79 59 15 78 64 112 136 44 71 45 128 68 119 91 106 13 74 123 31 27 129 144 49 147 145 72 14 80 122 131 32 67 12 53 40 139 120 47 110 81 29 19 6 28 42 9 37 2 99 114 102 70 108 86 135 50 137 132 85 142 18 65 55 58 141 25 20 51 109 43 24 118 69 127 36 61 11 148 130 17 66 60 140 117 41 57 39 101 116 23 38 77 133 16 111 105 52 124 7 84 103 95 82 107 5 100 143 97 146 26 56 75 83 90 46 138 134 54 92 33 126 93 35 96 89 8 30 34 98 
